p cnf 24 327
-1 -11 0
-1 -14 0
-1 -16 0
-1 -17 0
-1 -19 0
-1 -2 0
-1 -22 0
-1 -24 0
-1 -3 0
-1 -4 0
-1 -5 0
-1 -6 0
-1 -7 0
-1 -8 0
-1 -9 0
-10 -11 0
-10 -12 0
-10 -13 0
-10 -14 0
-10 -15 0
-10 -16 0
-10 -18 0
-10 -2 0
-10 -24 0
-10 -8 0
-10 -9 0
-11 -1 0
-11 -10 0
-11 -12 0
-11 -13 0
-11 -14 0
-11 -15 0
-11 -16 0
-11 -17 0
-11 -19 0
-11 -21 0
-11 -3 0
-11 -5 0
-11 -9 0
-12 -10 0
-12 -11 0
-12 -13 0
-12 -14 0
-12 -15 0
-12 -16 0
-12 -20 0
-12 -22 0
-12 -23 0
-12 -4 0
-12 -6 0
-12 -7 0
-12 -9 0
-13 -10 0
-13 -11 0
-13 -12 0
-13 -14 0
-13 -15 0
-13 -16 0
-13 -19 0
-13 -21 0
-13 -3 0
-13 -5 0
-13 -9 0
-14 -1 0
-14 -10 0
-14 -11 0
-14 -12 0
-14 -13 0
-14 -15 0
-14 -16 0
-14 -17 0
-14 -20 0
-14 -22 0
-14 -24 0
-14 -4 0
-14 -6 0
-14 -8 0
-14 -9 0
-15 -10 0
-15 -11 0
-15 -12 0
-15 -13 0
-15 -14 0
-15 -16 0
-15 -20 0
-15 -23 0
-15 -24 0
-15 -4 0
-15 -7 0
-15 -8 0
-15 -9 0
-16 -1 0
-16 -10 0
-16 -11 0
-16 -12 0
-16 -13 0
-16 -14 0
-16 -15 0
-16 -17 0
-16 -18 0
-16 -2 0
-16 -22 0
-16 -23 0
-16 -24 0
-16 -6 0
-16 -7 0
-16 -8 0
-16 -9 0
-17 -1 0
-17 -11 0
-17 -14 0
-17 -16 0
-17 -18 0
-17 -19 0
-17 -20 0
-17 -21 0
-17 -22 0
-17 -23 0
-17 -24 0
-17 -3 0
-17 -6 0
-17 -8 0
-17 -9 0
-18 -10 0
-18 -16 0
-18 -17 0
-18 -19 0
-18 -2 0
-18 -20 0
-18 -21 0
-18 -22 0
-18 -23 0
-18 -24 0
-18 -8 0
-19 -1 0
-19 -11 0
-19 -13 0
-19 -17 0
-19 -18 0
-19 -20 0
-19 -21 0
-19 -22 0
-19 -23 0
-19 -24 0
-19 -3 0
-19 -5 0
-19 -9 0
-2 -1 0
-2 -10 0
-2 -16 0
-2 -18 0
-2 -24 0
-2 -3 0
-2 -4 0
-2 -5 0
-2 -6 0
-2 -7 0
-2 -8 0
-20 -12 0
-20 -14 0
-20 -15 0
-20 -17 0
-20 -18 0
-20 -19 0
-20 -21 0
-20 -22 0
-20 -23 0
-20 -24 0
-20 -4 0
-20 -6 0
-20 -7 0
-21 -11 0
-21 -13 0
-21 -17 0
-21 -18 0
-21 -19 0
-21 -20 0
-21 -22 0
-21 -23 0
-21 -24 0
-21 -3 0
-21 -5 0
-22 -1 0
-22 -12 0
-22 -14 0
-22 -16 0
-22 -17 0
-22 -18 0
-22 -19 0
-22 -20 0
-22 -21 0
-22 -23 0
-22 -24 0
-22 -4 0
-22 -6 0
-22 -8 0
-22 -9 0
-23 -12 0
-23 -15 0
-23 -16 0
-23 -17 0
-23 -18 0
-23 -19 0
-23 -20 0
-23 -21 0
-23 -22 0
-23 -24 0
-23 -4 0
-23 -7 0
-23 -8 0
-24 -1 0
-24 -10 0
-24 -14 0
-24 -15 0
-24 -16 0
-24 -17 0
-24 -18 0
-24 -19 0
-24 -2 0
-24 -20 0
-24 -21 0
-24 -22 0
-24 -23 0
-24 -6 0
-24 -7 0
-24 -8 0
-24 -9 0
-3 -1 0
-3 -11 0
-3 -13 0
-3 -17 0
-3 -19 0
-3 -2 0
-3 -21 0
-3 -4 0
-3 -5 0
-3 -6 0
-3 -7 0
-3 -8 0
-3 -9 0
-4 -1 0
-4 -12 0
-4 -14 0
-4 -15 0
-4 -2 0
-4 -20 0
-4 -22 0
-4 -23 0
-4 -3 0
-4 -5 0
-4 -6 0
-4 -7 0
-4 -8 0
-5 -1 0
-5 -11 0
-5 -13 0
-5 -19 0
-5 -2 0
-5 -21 0
-5 -3 0
-5 -4 0
-5 -6 0
-5 -7 0
-5 -8 0
-6 -1 0
-6 -12 0
-6 -14 0
-6 -16 0
-6 -17 0
-6 -2 0
-6 -20 0
-6 -22 0
-6 -24 0
-6 -3 0
-6 -4 0
-6 -5 0
-6 -7 0
-6 -8 0
-6 -9 0
-7 -1 0
-7 -12 0
-7 -15 0
-7 -16 0
-7 -2 0
-7 -20 0
-7 -23 0
-7 -24 0
-7 -3 0
-7 -4 0
-7 -5 0
-7 -6 0
-7 -8 0
-8 -1 0
-8 -10 0
-8 -14 0
-8 -15 0
-8 -16 0
-8 -17 0
-8 -18 0
-8 -2 0
-8 -22 0
-8 -23 0
-8 -24 0
-8 -3 0
-8 -4 0
-8 -5 0
-8 -6 0
-8 -7 0
-8 -9 0
-9 -1 0
-9 -10 0
-9 -11 0
-9 -12 0
-9 -13 0
-9 -14 0
-9 -15 0
-9 -16 0
-9 -17 0
-9 -19 0
-9 -22 0
-9 -24 0
-9 -3 0
-9 -6 0
-9 -8 0
1 2 3 4 5 6 7 8 0
17 18 19 20 21 22 23 24 0
9 10 11 12 13 14 15 16 0
